\ Model UnassignedDistance
\ LP format - for model browsing. Use MPS format to capture full model detail.
Minimize
  y[0] + y[1] + y[2] + y[3] + y[4] + y[5]
Subject To
 C1a[0]: - alpha[0] + y[0] >= 0
 C1a[1]: - alpha[1] + y[1] >= 0
 C1a[2]: - alpha[2] + y[2] >= 0
 C1a[3]: - alpha[3] + y[3] >= 0
 C1a[4]: - alpha[4] + y[4] >= 0
 C1a[5]: - alpha[5] + y[5] >= 0
 C1b[0]: alpha[0] + y[0] >= 0
 C1b[1]: alpha[1] + y[1] >= 0
 C1b[2]: alpha[2] + y[2] >= 0
 C1b[3]: alpha[3] + y[3] >= 0
 C1b[4]: alpha[4] + y[4] >= 0
 C1b[5]: alpha[5] + y[5] >= 0
 C2aux[0,1][0]: - x[0][0] + x[1][0] + v[0,1][0] = 0
 C2aux[0,1][1]: - x[0][1] + x[1][1] + v[0,1][1] = 0
 C2aux[0,1][2]: - x[0][2] + x[1][2] + v[0,1][2] = 0
 C2aux[0,2][0]: - x[0][0] + x[2][0] + v[0,2][0] = 0
 C2aux[0,2][1]: - x[0][1] + x[2][1] + v[0,2][1] = 0
 C2aux[0,2][2]: - x[0][2] + x[2][2] + v[0,2][2] = 0
 C2aux[0,3][0]: - x[0][0] + x[3][0] + v[0,3][0] = 0
 C2aux[0,3][1]: - x[0][1] + x[3][1] + v[0,3][1] = 0
 C2aux[0,3][2]: - x[0][2] + x[3][2] + v[0,3][2] = 0
 C2aux[1,2][0]: - x[1][0] + x[2][0] + v[1,2][0] = 0
 C2aux[1,2][1]: - x[1][1] + x[2][1] + v[1,2][1] = 0
 C2aux[1,2][2]: - x[1][2] + x[2][2] + v[1,2][2] = 0
 C2aux[1,3][0]: - x[1][0] + x[3][0] + v[1,3][0] = 0
 C2aux[1,3][1]: - x[1][1] + x[3][1] + v[1,3][1] = 0
 C2aux[1,3][2]: - x[1][2] + x[3][2] + v[1,3][2] = 0
 C2aux[2,3][0]: - x[2][0] + x[3][0] + v[2,3][0] = 0
 C2aux[2,3][1]: - x[2][1] + x[3][1] + v[2,3][1] = 0
 C2aux[2,3][2]: - x[2][2] + x[3][2] + v[2,3][2] = 0
 C3a[0,1,0]: w[0,1] + 3.8724 a[0,1,0] - z[0,1,0] <= 3.8724
 C3a[0,1,1]: w[0,1] + 3.8724 a[0,1,1] - z[0,1,1] <= 3.8724
 C3a[0,1,2]: w[0,1] + 3.8724 a[0,1,2] - z[0,1,2] <= 3.8724
 C3a[0,1,3]: w[0,1] + 3.8724 a[0,1,3] - z[0,1,3] <= 3.8724
 C3a[0,1,4]: w[0,1] + 3.8724 a[0,1,4] - z[0,1,4] <= 3.8724
 C3a[0,1,5]: w[0,1] + 3.8724 a[0,1,5] - z[0,1,5] <= 3.8724
 C3a[0,2,0]: w[0,2] + 3.8724 a[0,2,0] - z[0,2,0] <= 3.8724
 C3a[0,2,1]: w[0,2] + 3.8724 a[0,2,1] - z[0,2,1] <= 3.8724
 C3a[0,2,2]: w[0,2] + 3.8724 a[0,2,2] - z[0,2,2] <= 3.8724
 C3a[0,2,3]: w[0,2] + 3.8724 a[0,2,3] - z[0,2,3] <= 3.8724
 C3a[0,2,4]: w[0,2] + 3.8724 a[0,2,4] - z[0,2,4] <= 3.8724
 C3a[0,2,5]: w[0,2] + 3.8724 a[0,2,5] - z[0,2,5] <= 3.8724
 C3a[0,3,0]: w[0,3] + 3.8724 a[0,3,0] - z[0,3,0] <= 3.8724
 C3a[0,3,1]: w[0,3] + 3.8724 a[0,3,1] - z[0,3,1] <= 3.8724
 C3a[0,3,2]: w[0,3] + 3.8724 a[0,3,2] - z[0,3,2] <= 3.8724
 C3a[0,3,3]: w[0,3] + 3.8724 a[0,3,3] - z[0,3,3] <= 3.8724
 C3a[0,3,4]: w[0,3] + 3.8724 a[0,3,4] - z[0,3,4] <= 3.8724
 C3a[0,3,5]: w[0,3] + 3.8724 a[0,3,5] - z[0,3,5] <= 3.8724
 C3a[1,2,0]: w[1,2] + 3.8724 a[1,2,0] - z[1,2,0] <= 3.8724
 C3a[1,2,1]: w[1,2] + 3.8724 a[1,2,1] - z[1,2,1] <= 3.8724
 C3a[1,2,2]: w[1,2] + 3.8724 a[1,2,2] - z[1,2,2] <= 3.8724
 C3a[1,2,3]: w[1,2] + 3.8724 a[1,2,3] - z[1,2,3] <= 3.8724
 C3a[1,2,4]: w[1,2] + 3.8724 a[1,2,4] - z[1,2,4] <= 3.8724
 C3a[1,2,5]: w[1,2] + 3.8724 a[1,2,5] - z[1,2,5] <= 3.8724
 C3a[1,3,0]: w[1,3] + 3.8724 a[1,3,0] - z[1,3,0] <= 3.8724
 C3a[1,3,1]: w[1,3] + 3.8724 a[1,3,1] - z[1,3,1] <= 3.8724
 C3a[1,3,2]: w[1,3] + 3.8724 a[1,3,2] - z[1,3,2] <= 3.8724
 C3a[1,3,3]: w[1,3] + 3.8724 a[1,3,3] - z[1,3,3] <= 3.8724
 C3a[1,3,4]: w[1,3] + 3.8724 a[1,3,4] - z[1,3,4] <= 3.8724
 C3a[1,3,5]: w[1,3] + 3.8724 a[1,3,5] - z[1,3,5] <= 3.8724
 C3a[2,3,0]: w[2,3] + 3.8724 a[2,3,0] - z[2,3,0] <= 3.8724
 C3a[2,3,1]: w[2,3] + 3.8724 a[2,3,1] - z[2,3,1] <= 3.8724
 C3a[2,3,2]: w[2,3] + 3.8724 a[2,3,2] - z[2,3,2] <= 3.8724
 C3a[2,3,3]: w[2,3] + 3.8724 a[2,3,3] - z[2,3,3] <= 3.8724
 C3a[2,3,4]: w[2,3] + 3.8724 a[2,3,4] - z[2,3,4] <= 3.8724
 C3a[2,3,5]: w[2,3] + 3.8724 a[2,3,5] - z[2,3,5] <= 3.8724
 C3b[0,1,0]: - w[0,1] + 3.8724 a[0,1,0] + z[0,1,0] <= 3.8724
 C3b[0,1,1]: - w[0,1] + 3.8724 a[0,1,1] + z[0,1,1] <= 3.8724
 C3b[0,1,2]: - w[0,1] + 3.8724 a[0,1,2] + z[0,1,2] <= 3.8724
 C3b[0,1,3]: - w[0,1] + 3.8724 a[0,1,3] + z[0,1,3] <= 3.8724
 C3b[0,1,4]: - w[0,1] + 3.8724 a[0,1,4] + z[0,1,4] <= 3.8724
 C3b[0,1,5]: - w[0,1] + 3.8724 a[0,1,5] + z[0,1,5] <= 3.8724
 C3b[0,2,0]: - w[0,2] + 3.8724 a[0,2,0] + z[0,2,0] <= 3.8724
 C3b[0,2,1]: - w[0,2] + 3.8724 a[0,2,1] + z[0,2,1] <= 3.8724
 C3b[0,2,2]: - w[0,2] + 3.8724 a[0,2,2] + z[0,2,2] <= 3.8724
 C3b[0,2,3]: - w[0,2] + 3.8724 a[0,2,3] + z[0,2,3] <= 3.8724
 C3b[0,2,4]: - w[0,2] + 3.8724 a[0,2,4] + z[0,2,4] <= 3.8724
 C3b[0,2,5]: - w[0,2] + 3.8724 a[0,2,5] + z[0,2,5] <= 3.8724
 C3b[0,3,0]: - w[0,3] + 3.8724 a[0,3,0] + z[0,3,0] <= 3.8724
 C3b[0,3,1]: - w[0,3] + 3.8724 a[0,3,1] + z[0,3,1] <= 3.8724
 C3b[0,3,2]: - w[0,3] + 3.8724 a[0,3,2] + z[0,3,2] <= 3.8724
 C3b[0,3,3]: - w[0,3] + 3.8724 a[0,3,3] + z[0,3,3] <= 3.8724
 C3b[0,3,4]: - w[0,3] + 3.8724 a[0,3,4] + z[0,3,4] <= 3.8724
 C3b[0,3,5]: - w[0,3] + 3.8724 a[0,3,5] + z[0,3,5] <= 3.8724
 C3b[1,2,0]: - w[1,2] + 3.8724 a[1,2,0] + z[1,2,0] <= 3.8724
 C3b[1,2,1]: - w[1,2] + 3.8724 a[1,2,1] + z[1,2,1] <= 3.8724
 C3b[1,2,2]: - w[1,2] + 3.8724 a[1,2,2] + z[1,2,2] <= 3.8724
 C3b[1,2,3]: - w[1,2] + 3.8724 a[1,2,3] + z[1,2,3] <= 3.8724
 C3b[1,2,4]: - w[1,2] + 3.8724 a[1,2,4] + z[1,2,4] <= 3.8724
 C3b[1,2,5]: - w[1,2] + 3.8724 a[1,2,5] + z[1,2,5] <= 3.8724
 C3b[1,3,0]: - w[1,3] + 3.8724 a[1,3,0] + z[1,3,0] <= 3.8724
 C3b[1,3,1]: - w[1,3] + 3.8724 a[1,3,1] + z[1,3,1] <= 3.8724
 C3b[1,3,2]: - w[1,3] + 3.8724 a[1,3,2] + z[1,3,2] <= 3.8724
 C3b[1,3,3]: - w[1,3] + 3.8724 a[1,3,3] + z[1,3,3] <= 3.8724
 C3b[1,3,4]: - w[1,3] + 3.8724 a[1,3,4] + z[1,3,4] <= 3.8724
 C3b[1,3,5]: - w[1,3] + 3.8724 a[1,3,5] + z[1,3,5] <= 3.8724
 C3b[2,3,0]: - w[2,3] + 3.8724 a[2,3,0] + z[2,3,0] <= 3.8724
 C3b[2,3,1]: - w[2,3] + 3.8724 a[2,3,1] + z[2,3,1] <= 3.8724
 C3b[2,3,2]: - w[2,3] + 3.8724 a[2,3,2] + z[2,3,2] <= 3.8724
 C3b[2,3,3]: - w[2,3] + 3.8724 a[2,3,3] + z[2,3,3] <= 3.8724
 C3b[2,3,4]: - w[2,3] + 3.8724 a[2,3,4] + z[2,3,4] <= 3.8724
 C3b[2,3,5]: - w[2,3] + 3.8724 a[2,3,5] + z[2,3,5] <= 3.8724
 C4a[0,1,0]: - 3.8724 a[0,1,0] - z[0,1,0] <= 0
 C4a[0,1,1]: - 3.8724 a[0,1,1] - z[0,1,1] <= 0
 C4a[0,1,2]: - 3.8724 a[0,1,2] - z[0,1,2] <= 0
 C4a[0,1,3]: - 3.8724 a[0,1,3] - z[0,1,3] <= 0
 C4a[0,1,4]: - 3.8724 a[0,1,4] - z[0,1,4] <= 0
 C4a[0,1,5]: - 3.8724 a[0,1,5] - z[0,1,5] <= 0
 C4a[0,2,0]: - 3.8724 a[0,2,0] - z[0,2,0] <= 0
 C4a[0,2,1]: - 3.8724 a[0,2,1] - z[0,2,1] <= 0
 C4a[0,2,2]: - 3.8724 a[0,2,2] - z[0,2,2] <= 0
 C4a[0,2,3]: - 3.8724 a[0,2,3] - z[0,2,3] <= 0
 C4a[0,2,4]: - 3.8724 a[0,2,4] - z[0,2,4] <= 0
 C4a[0,2,5]: - 3.8724 a[0,2,5] - z[0,2,5] <= 0
 C4a[0,3,0]: - 3.8724 a[0,3,0] - z[0,3,0] <= 0
 C4a[0,3,1]: - 3.8724 a[0,3,1] - z[0,3,1] <= 0
 C4a[0,3,2]: - 3.8724 a[0,3,2] - z[0,3,2] <= 0
 C4a[0,3,3]: - 3.8724 a[0,3,3] - z[0,3,3] <= 0
 C4a[0,3,4]: - 3.8724 a[0,3,4] - z[0,3,4] <= 0
 C4a[0,3,5]: - 3.8724 a[0,3,5] - z[0,3,5] <= 0
 C4a[1,2,0]: - 3.8724 a[1,2,0] - z[1,2,0] <= 0
 C4a[1,2,1]: - 3.8724 a[1,2,1] - z[1,2,1] <= 0
 C4a[1,2,2]: - 3.8724 a[1,2,2] - z[1,2,2] <= 0
 C4a[1,2,3]: - 3.8724 a[1,2,3] - z[1,2,3] <= 0
 C4a[1,2,4]: - 3.8724 a[1,2,4] - z[1,2,4] <= 0
 C4a[1,2,5]: - 3.8724 a[1,2,5] - z[1,2,5] <= 0
 C4a[1,3,0]: - 3.8724 a[1,3,0] - z[1,3,0] <= 0
 C4a[1,3,1]: - 3.8724 a[1,3,1] - z[1,3,1] <= 0
 C4a[1,3,2]: - 3.8724 a[1,3,2] - z[1,3,2] <= 0
 C4a[1,3,3]: - 3.8724 a[1,3,3] - z[1,3,3] <= 0
 C4a[1,3,4]: - 3.8724 a[1,3,4] - z[1,3,4] <= 0
 C4a[1,3,5]: - 3.8724 a[1,3,5] - z[1,3,5] <= 0
 C4a[2,3,0]: - 3.8724 a[2,3,0] - z[2,3,0] <= 0
 C4a[2,3,1]: - 3.8724 a[2,3,1] - z[2,3,1] <= 0
 C4a[2,3,2]: - 3.8724 a[2,3,2] - z[2,3,2] <= 0
 C4a[2,3,3]: - 3.8724 a[2,3,3] - z[2,3,3] <= 0
 C4a[2,3,4]: - 3.8724 a[2,3,4] - z[2,3,4] <= 0
 C4a[2,3,5]: - 3.8724 a[2,3,5] - z[2,3,5] <= 0
 C4b[0,1,0]: - 3.8724 a[0,1,0] + z[0,1,0] <= 0
 C4b[0,1,1]: - 3.8724 a[0,1,1] + z[0,1,1] <= 0
 C4b[0,1,2]: - 3.8724 a[0,1,2] + z[0,1,2] <= 0
 C4b[0,1,3]: - 3.8724 a[0,1,3] + z[0,1,3] <= 0
 C4b[0,1,4]: - 3.8724 a[0,1,4] + z[0,1,4] <= 0
 C4b[0,1,5]: - 3.8724 a[0,1,5] + z[0,1,5] <= 0
 C4b[0,2,0]: - 3.8724 a[0,2,0] + z[0,2,0] <= 0
 C4b[0,2,1]: - 3.8724 a[0,2,1] + z[0,2,1] <= 0
 C4b[0,2,2]: - 3.8724 a[0,2,2] + z[0,2,2] <= 0
 C4b[0,2,3]: - 3.8724 a[0,2,3] + z[0,2,3] <= 0
 C4b[0,2,4]: - 3.8724 a[0,2,4] + z[0,2,4] <= 0
 C4b[0,2,5]: - 3.8724 a[0,2,5] + z[0,2,5] <= 0
 C4b[0,3,0]: - 3.8724 a[0,3,0] + z[0,3,0] <= 0
 C4b[0,3,1]: - 3.8724 a[0,3,1] + z[0,3,1] <= 0
 C4b[0,3,2]: - 3.8724 a[0,3,2] + z[0,3,2] <= 0
 C4b[0,3,3]: - 3.8724 a[0,3,3] + z[0,3,3] <= 0
 C4b[0,3,4]: - 3.8724 a[0,3,4] + z[0,3,4] <= 0
 C4b[0,3,5]: - 3.8724 a[0,3,5] + z[0,3,5] <= 0
 C4b[1,2,0]: - 3.8724 a[1,2,0] + z[1,2,0] <= 0
 C4b[1,2,1]: - 3.8724 a[1,2,1] + z[1,2,1] <= 0
 C4b[1,2,2]: - 3.8724 a[1,2,2] + z[1,2,2] <= 0
 C4b[1,2,3]: - 3.8724 a[1,2,3] + z[1,2,3] <= 0
 C4b[1,2,4]: - 3.8724 a[1,2,4] + z[1,2,4] <= 0
 C4b[1,2,5]: - 3.8724 a[1,2,5] + z[1,2,5] <= 0
 C4b[1,3,0]: - 3.8724 a[1,3,0] + z[1,3,0] <= 0
 C4b[1,3,1]: - 3.8724 a[1,3,1] + z[1,3,1] <= 0
 C4b[1,3,2]: - 3.8724 a[1,3,2] + z[1,3,2] <= 0
 C4b[1,3,3]: - 3.8724 a[1,3,3] + z[1,3,3] <= 0
 C4b[1,3,4]: - 3.8724 a[1,3,4] + z[1,3,4] <= 0
 C4b[1,3,5]: - 3.8724 a[1,3,5] + z[1,3,5] <= 0
 C4b[2,3,0]: - 3.8724 a[2,3,0] + z[2,3,0] <= 0
 C4b[2,3,1]: - 3.8724 a[2,3,1] + z[2,3,1] <= 0
 C4b[2,3,2]: - 3.8724 a[2,3,2] + z[2,3,2] <= 0
 C4b[2,3,3]: - 3.8724 a[2,3,3] + z[2,3,3] <= 0
 C4b[2,3,4]: - 3.8724 a[2,3,4] + z[2,3,4] <= 0
 C4b[2,3,5]: - 3.8724 a[2,3,5] + z[2,3,5] <= 0
 C5a[0,1,0]: alpha[0] + 3.8724 a[0,1,0] - z[0,1,0] <= 2.3724
 C5a[0,1,1]: alpha[1] + 3.8724 a[0,1,1] - z[0,1,1] <= 2.3724
 C5a[0,1,2]: alpha[2] + 3.8724 a[0,1,2] - z[0,1,2] <= 2.3724
 C5a[0,1,3]: alpha[3] + 3.8724 a[0,1,3] - z[0,1,3] <= 1.348
 C5a[0,1,4]: alpha[4] + 3.8724 a[0,1,4] - z[0,1,4] <= 1.348
 C5a[0,1,5]: alpha[5] + 3.8724 a[0,1,5] - z[0,1,5] <= 0
 C5a[0,2,0]: alpha[0] + 3.8724 a[0,2,0] - z[0,2,0] <= 2.3724
 C5a[0,2,1]: alpha[1] + 3.8724 a[0,2,1] - z[0,2,1] <= 2.3724
 C5a[0,2,2]: alpha[2] + 3.8724 a[0,2,2] - z[0,2,2] <= 2.3724
 C5a[0,2,3]: alpha[3] + 3.8724 a[0,2,3] - z[0,2,3] <= 1.348
 C5a[0,2,4]: alpha[4] + 3.8724 a[0,2,4] - z[0,2,4] <= 1.348
 C5a[0,2,5]: alpha[5] + 3.8724 a[0,2,5] - z[0,2,5] <= 0
 C5a[0,3,0]: alpha[0] + 3.8724 a[0,3,0] - z[0,3,0] <= 2.3724
 C5a[0,3,1]: alpha[1] + 3.8724 a[0,3,1] - z[0,3,1] <= 2.3724
 C5a[0,3,2]: alpha[2] + 3.8724 a[0,3,2] - z[0,3,2] <= 2.3724
 C5a[0,3,3]: alpha[3] + 3.8724 a[0,3,3] - z[0,3,3] <= 1.348
 C5a[0,3,4]: alpha[4] + 3.8724 a[0,3,4] - z[0,3,4] <= 1.348
 C5a[0,3,5]: alpha[5] + 3.8724 a[0,3,5] - z[0,3,5] <= 0
 C5a[1,2,0]: alpha[0] + 3.8724 a[1,2,0] - z[1,2,0] <= 2.3724
 C5a[1,2,1]: alpha[1] + 3.8724 a[1,2,1] - z[1,2,1] <= 2.3724
 C5a[1,2,2]: alpha[2] + 3.8724 a[1,2,2] - z[1,2,2] <= 2.3724
 C5a[1,2,3]: alpha[3] + 3.8724 a[1,2,3] - z[1,2,3] <= 1.348
 C5a[1,2,4]: alpha[4] + 3.8724 a[1,2,4] - z[1,2,4] <= 1.348
 C5a[1,2,5]: alpha[5] + 3.8724 a[1,2,5] - z[1,2,5] <= 0
 C5a[1,3,0]: alpha[0] + 3.8724 a[1,3,0] - z[1,3,0] <= 2.3724
 C5a[1,3,1]: alpha[1] + 3.8724 a[1,3,1] - z[1,3,1] <= 2.3724
 C5a[1,3,2]: alpha[2] + 3.8724 a[1,3,2] - z[1,3,2] <= 2.3724
 C5a[1,3,3]: alpha[3] + 3.8724 a[1,3,3] - z[1,3,3] <= 1.348
 C5a[1,3,4]: alpha[4] + 3.8724 a[1,3,4] - z[1,3,4] <= 1.348
 C5a[1,3,5]: alpha[5] + 3.8724 a[1,3,5] - z[1,3,5] <= 0
 C5a[2,3,0]: alpha[0] + 3.8724 a[2,3,0] - z[2,3,0] <= 2.3724
 C5a[2,3,1]: alpha[1] + 3.8724 a[2,3,1] - z[2,3,1] <= 2.3724
 C5a[2,3,2]: alpha[2] + 3.8724 a[2,3,2] - z[2,3,2] <= 2.3724
 C5a[2,3,3]: alpha[3] + 3.8724 a[2,3,3] - z[2,3,3] <= 1.348
 C5a[2,3,4]: alpha[4] + 3.8724 a[2,3,4] - z[2,3,4] <= 1.348
 C5a[2,3,5]: alpha[5] + 3.8724 a[2,3,5] - z[2,3,5] <= 0
 C5b[0,1,0]: - alpha[0] + 3.8724 a[0,1,0] + z[0,1,0] <= 5.3724
 C5b[0,1,1]: - alpha[1] + 3.8724 a[0,1,1] + z[0,1,1] <= 5.3724
 C5b[0,1,2]: - alpha[2] + 3.8724 a[0,1,2] + z[0,1,2] <= 5.3724
 C5b[0,1,3]: - alpha[3] + 3.8724 a[0,1,3] + z[0,1,3] <= 6.3968
 C5b[0,1,4]: - alpha[4] + 3.8724 a[0,1,4] + z[0,1,4] <= 6.3968
 C5b[0,1,5]: - alpha[5] + 3.8724 a[0,1,5] + z[0,1,5] <= 7.7448
 C5b[0,2,0]: - alpha[0] + 3.8724 a[0,2,0] + z[0,2,0] <= 5.3724
 C5b[0,2,1]: - alpha[1] + 3.8724 a[0,2,1] + z[0,2,1] <= 5.3724
 C5b[0,2,2]: - alpha[2] + 3.8724 a[0,2,2] + z[0,2,2] <= 5.3724
 C5b[0,2,3]: - alpha[3] + 3.8724 a[0,2,3] + z[0,2,3] <= 6.3968
 C5b[0,2,4]: - alpha[4] + 3.8724 a[0,2,4] + z[0,2,4] <= 6.3968
 C5b[0,2,5]: - alpha[5] + 3.8724 a[0,2,5] + z[0,2,5] <= 7.7448
 C5b[0,3,0]: - alpha[0] + 3.8724 a[0,3,0] + z[0,3,0] <= 5.3724
 C5b[0,3,1]: - alpha[1] + 3.8724 a[0,3,1] + z[0,3,1] <= 5.3724
 C5b[0,3,2]: - alpha[2] + 3.8724 a[0,3,2] + z[0,3,2] <= 5.3724
 C5b[0,3,3]: - alpha[3] + 3.8724 a[0,3,3] + z[0,3,3] <= 6.3968
 C5b[0,3,4]: - alpha[4] + 3.8724 a[0,3,4] + z[0,3,4] <= 6.3968
 C5b[0,3,5]: - alpha[5] + 3.8724 a[0,3,5] + z[0,3,5] <= 7.7448
 C5b[1,2,0]: - alpha[0] + 3.8724 a[1,2,0] + z[1,2,0] <= 5.3724
 C5b[1,2,1]: - alpha[1] + 3.8724 a[1,2,1] + z[1,2,1] <= 5.3724
 C5b[1,2,2]: - alpha[2] + 3.8724 a[1,2,2] + z[1,2,2] <= 5.3724
 C5b[1,2,3]: - alpha[3] + 3.8724 a[1,2,3] + z[1,2,3] <= 6.3968
 C5b[1,2,4]: - alpha[4] + 3.8724 a[1,2,4] + z[1,2,4] <= 6.3968
 C5b[1,2,5]: - alpha[5] + 3.8724 a[1,2,5] + z[1,2,5] <= 7.7448
 C5b[1,3,0]: - alpha[0] + 3.8724 a[1,3,0] + z[1,3,0] <= 5.3724
 C5b[1,3,1]: - alpha[1] + 3.8724 a[1,3,1] + z[1,3,1] <= 5.3724
 C5b[1,3,2]: - alpha[2] + 3.8724 a[1,3,2] + z[1,3,2] <= 5.3724
 C5b[1,3,3]: - alpha[3] + 3.8724 a[1,3,3] + z[1,3,3] <= 6.3968
 C5b[1,3,4]: - alpha[4] + 3.8724 a[1,3,4] + z[1,3,4] <= 6.3968
 C5b[1,3,5]: - alpha[5] + 3.8724 a[1,3,5] + z[1,3,5] <= 7.7448
 C5b[2,3,0]: - alpha[0] + 3.8724 a[2,3,0] + z[2,3,0] <= 5.3724
 C5b[2,3,1]: - alpha[1] + 3.8724 a[2,3,1] + z[2,3,1] <= 5.3724
 C5b[2,3,2]: - alpha[2] + 3.8724 a[2,3,2] + z[2,3,2] <= 5.3724
 C5b[2,3,3]: - alpha[3] + 3.8724 a[2,3,3] + z[2,3,3] <= 6.3968
 C5b[2,3,4]: - alpha[4] + 3.8724 a[2,3,4] + z[2,3,4] <= 6.3968
 C5b[2,3,5]: - alpha[5] + 3.8724 a[2,3,5] + z[2,3,5] <= 7.7448
 R246: a[0,1,0] + a[0,2,0] + a[0,3,0] + a[1,2,0] + a[1,3,0] + a[2,3,0] = 1
 R247: a[0,1,1] + a[0,2,1] + a[0,3,1] + a[1,2,1] + a[1,3,1] + a[2,3,1] = 1
 R248: a[0,1,2] + a[0,2,2] + a[0,3,2] + a[1,2,2] + a[1,3,2] + a[2,3,2] = 1
 R249: a[0,1,3] + a[0,2,3] + a[0,3,3] + a[1,2,3] + a[1,3,3] + a[2,3,3] = 1
 R250: a[0,1,4] + a[0,2,4] + a[0,3,4] + a[1,2,4] + a[1,3,4] + a[2,3,4] = 1
 R251: a[0,1,5] + a[0,2,5] + a[0,3,5] + a[1,2,5] + a[1,3,5] + a[2,3,5] = 1
 R252: a[0,1,0] + a[0,1,1] + a[0,1,2] + a[0,1,3] + a[0,1,4] + a[0,1,5]
   <= 1
 R253: a[0,2,0] + a[0,2,1] + a[0,2,2] + a[0,2,3] + a[0,2,4] + a[0,2,5]
   <= 1
 R254: a[0,3,0] + a[0,3,1] + a[0,3,2] + a[0,3,3] + a[0,3,4] + a[0,3,5]
   <= 1
 R255: a[1,2,0] + a[1,2,1] + a[1,2,2] + a[1,2,3] + a[1,2,4] + a[1,2,5]
   <= 1
 R256: a[1,3,0] + a[1,3,1] + a[1,3,2] + a[1,3,3] + a[1,3,4] + a[1,3,5]
   <= 1
 R257: a[2,3,0] + a[2,3,1] + a[2,3,2] + a[2,3,3] + a[2,3,4] + a[2,3,5]
   <= 1
Bounds
Binaries
 a[0,1,0] a[0,1,1] a[0,1,2] a[0,1,3] a[0,1,4] a[0,1,5] a[0,2,0] a[0,2,1]
 a[0,2,2] a[0,2,3] a[0,2,4] a[0,2,5] a[0,3,0] a[0,3,1] a[0,3,2] a[0,3,3]
 a[0,3,4] a[0,3,5] a[1,2,0] a[1,2,1] a[1,2,2] a[1,2,3] a[1,2,4] a[1,2,5]
 a[1,3,0] a[1,3,1] a[1,3,2] a[1,3,3] a[1,3,4] a[1,3,5] a[2,3,0] a[2,3,1]
 a[2,3,2] a[2,3,3] a[2,3,4] a[2,3,5]
General Constraints
 C2[0,1]: w[0,1] = NORM ( 2 ) ( v[0,1][0] , v[0,1][1] , v[0,1][2] )
 C2[0,2]: w[0,2] = NORM ( 2 ) ( v[0,2][0] , v[0,2][1] , v[0,2][2] )
 C2[0,3]: w[0,3] = NORM ( 2 ) ( v[0,3][0] , v[0,3][1] , v[0,3][2] )
 C2[1,2]: w[1,2] = NORM ( 2 ) ( v[1,2][0] , v[1,2][1] , v[1,2][2] )
 C2[1,3]: w[1,3] = NORM ( 2 ) ( v[1,3][0] , v[1,3][1] , v[1,3][2] )
 C2[2,3]: w[2,3] = NORM ( 2 ) ( v[2,3][0] , v[2,3][1] , v[2,3][2] )
End
